10
1 0 25
2 0 17
2 1 34
3 0 19
3 1 8
3 2 34
4 0 6
4 1 28
4 2 12
4 3 36
5 0 14
5 1 39
5 2 31
5 3 8
5 4 13
6 0 29
6 1 29
6 2 40
6 3 24
6 4 23
6 5 24
7 0 8
7 1 38
7 2 8
7 3 32
7 4 22
7 5 31
7 6 29
8 0 15
8 1 24
8 2 35
8 3 27
8 4 35
8 5 39
8 6 28
8 7 36
9 0 21
9 1 3
9 2 22
9 3 9
9 4 37
9 5 7
9 6 1
9 7 14
9 8 7
